PARAMETER_FILE = even/even_uncomplete_graph_new/seg/par/random114.par
PROBLEM_FILE = even/even_uncomplete_graph_new/seg/mat/random114.tsp
Successes/Runs = 0/10
Cost.min = 805, Cost.avg = 805.00, Cost.max = 805
Gap.min = 0.0000%, Gap.avg = 0.0000%, Gap.max = 0.0000%
Trials.min = 1000, Trials.avg = 1000.0, Trials.max = 1000
Time.min = 0.40 sec., Time.avg = 0.50 sec., Time.max = 0.64 sec.
Time.total = 5.13 sec.
